NAME : portgen-19-28
COMMENT : portgen N=19, seed=28
TYPE : TSP
DIMENSION : 19
EDGE_WEIGHT_TYPE : EUC_2D
NODE_COORD_SECTION
1 549203 21716
2 885407 255509
3 832361 556518
4 309345 713575
5 744122 671924
6 404680 166271
7 944206 971923
8 752280 130417
9 455957 427742
10 74152 913258
11 456372 335885
12 183262 311510
13 686628 242611
14 689059 492322
15 214894 861183
16 586269 840846
17 661211 396499
18 380645 939593
19 317067 65444
